(set-info :smt-lib-version 2.6)
(set-logic QF_NIA)
(set-info :source |
Generated by: Cristina Borralleras, Daniel Larraz, Albert Oliveras, Enric Rodriguez-Carbonell, Albert Rubio
Generated on: 2017-04-27
Generator: VeryMax
Application: Termination proving
Target solver: barcelogic
|)
(set-info :license "https://creativecommons.org/licenses/by/4.0/")
(set-info :category "industrial")
(set-info :status unsat)
(declare-fun Nl3Pdolen^01 () Int)
(declare-fun Nl3i^01 () Int)
(declare-fun Nl3num^01 () Int)
(declare-fun lam0n0 () Int)
(declare-fun lam0n1 () Int)
(declare-fun lam0n2 () Int)
(declare-fun lam0n3 () Int)
(declare-fun Nl3CT1 () Int)
(declare-fun lam1n0 () Int)
(declare-fun lam1n1 () Int)
(declare-fun lam1n2 () Int)
(declare-fun lam1n3 () Int)
(declare-fun lam2n0 () Int)
(declare-fun lam2n1 () Int)
(declare-fun lam2n2 () Int)
(declare-fun lam2n3 () Int)
(declare-fun lam3n0 () Int)
(declare-fun lam3n1 () Int)
(declare-fun lam3n2 () Int)
(declare-fun lam3n3 () Int)
(declare-fun lam4n0 () Int)
(declare-fun lam4n1 () Int)
(declare-fun lam4n2 () Int)
(declare-fun lam4n3 () Int)
(declare-fun lam4n4 () Int)
(declare-fun lam5n0 () Int)
(declare-fun lam5n1 () Int)
(declare-fun lam5n2 () Int)
(declare-fun lam5n3 () Int)
(declare-fun lam5n4 () Int)
(declare-fun lam6n0 () Int)
(declare-fun lam6n1 () Int)
(declare-fun lam6n2 () Int)
(declare-fun Pdolen^0 () Int)
(declare-fun i^0 () Int)
(declare-fun undef126 () Int)
(declare-fun undef128 () Int)
(declare-fun num^0 () Int)
(declare-fun lam10n0 () Int)
(declare-fun lam10n1 () Int)
(declare-fun lam10n2 () Int)
(declare-fun lam10n3 () Int)
(declare-fun RFN1_CT () Int)
(declare-fun RFN1_i^0 () Int)
(declare-fun RFN1_Pdolen^0 () Int)
(declare-fun RFN1_num^0 () Int)
(declare-fun lam14n0 () Int)
(declare-fun lam14n1 () Int)
(declare-fun lam14n2 () Int)
(declare-fun lam14n3 () Int)
(declare-fun lam18n0 () Int)
(declare-fun lam18n1 () Int)
(declare-fun lam18n2 () Int)
(declare-fun lam18n3 () Int)
(declare-fun lam18n4 () Int)
(declare-fun lam18n5 () Int)
(declare-fun lam18n6 () Int)
(declare-fun lam18n7 () Int)
(declare-fun lam8n0 () Int)
(declare-fun lam8n1 () Int)
(declare-fun lam8n2 () Int)
(declare-fun lam8n3 () Int)
(declare-fun lam9n0 () Int)
(declare-fun lam9n1 () Int)
(declare-fun lam9n2 () Int)
(declare-fun lam9n3 () Int)
(declare-fun lam12n0 () Int)
(declare-fun lam12n1 () Int)
(declare-fun lam12n2 () Int)
(declare-fun lam12n3 () Int)
(declare-fun lam13n0 () Int)
(declare-fun lam13n1 () Int)
(declare-fun lam13n2 () Int)
(declare-fun lam13n3 () Int)
(declare-fun lam16n0 () Int)
(declare-fun lam16n1 () Int)
(declare-fun lam16n2 () Int)
(declare-fun lam16n3 () Int)
(declare-fun lam16n4 () Int)
(declare-fun lam16n5 () Int)
(declare-fun lam16n6 () Int)
(declare-fun lam16n7 () Int)
(declare-fun lam17n0 () Int)
(declare-fun lam17n1 () Int)
(declare-fun lam17n2 () Int)
(declare-fun lam17n3 () Int)
(declare-fun lam17n4 () Int)
(declare-fun lam17n5 () Int)
(declare-fun lam17n6 () Int)
(declare-fun lam17n7 () Int)
(declare-fun lam7n0 () Int)
(declare-fun lam7n1 () Int)
(declare-fun lam7n2 () Int)
(declare-fun lam7n3 () Int)
(declare-fun lam11n0 () Int)
(declare-fun lam11n1 () Int)
(declare-fun lam11n2 () Int)
(declare-fun lam11n3 () Int)
(declare-fun lam15n0 () Int)
(declare-fun lam15n1 () Int)
(declare-fun lam15n2 () Int)
(declare-fun lam15n3 () Int)
(declare-fun lam15n4 () Int)
(declare-fun lam15n5 () Int)
(declare-fun lam15n6 () Int)
(declare-fun lam15n7 () Int)
(assert ( and ( <= ( - 1 ) Nl3Pdolen^01 ) ( <= Nl3Pdolen^01 1 ) ( <= ( - 1 ) Nl3i^01 ) ( <= Nl3i^01 1 ) ( <= ( - 1 ) Nl3num^01 ) ( <= Nl3num^01 1 ) ))
(assert ( or ( and ( >= lam0n0 0 ) ( >= lam0n1 0 ) ( >= lam0n2 0 ) ( >= lam0n3 0 ) ( > ( + ( * 1 lam0n0 ) ( * 1 lam0n1 ) ( * ( - 1 ) lam0n2 ) ( * Nl3CT1 lam0n3 ) ( - 1 ) ) 0 ) ( = ( + ( * ( - 1 ) lam0n0 ) ( * Nl3Pdolen^01 lam0n3 ) ) 0 ) ( = ( + ( * 1 lam0n0 ) ( * Nl3i^01 lam0n3 ) ) 0 ) ( = ( * Nl3num^01 lam0n3 ) 0 ) ( = ( * 1 lam0n2 ) 0 ) ( = ( * ( - 1 ) lam0n1 ) 0 ) ) ( and ( >= lam1n0 0 ) ( >= lam1n1 0 ) ( >= lam1n2 0 ) ( >= lam1n3 0 ) ( > ( + ( * 1 lam1n0 ) ( * 1 lam1n1 ) ( * ( - 1 ) lam1n2 ) ( * Nl3CT1 lam1n3 ) ( - 1 ( + Nl3CT1 ( * Nl3i^01 ( - 1 ) ) ) ) ) 0 ) ( = ( + ( * ( - 1 ) lam1n0 ) ( * Nl3Pdolen^01 lam1n3 ) ( - ( + 0 Nl3Pdolen^01 ) ) ) 0 ) ( = ( + ( * 1 lam1n0 ) ( * Nl3i^01 lam1n3 ) ( - ( + 0 ( * Nl3i^01 1 ) ) ) ) 0 ) ( = ( + ( * Nl3num^01 lam1n3 ) ( - ( + 0 Nl3num^01 ) ) ) 0 ) ( = ( * 1 lam1n2 ) 0 ) ( = ( * ( - 1 ) lam1n1 ) 0 ) ) ))
(assert ( or ( and ( >= lam2n0 0 ) ( >= lam2n1 0 ) ( >= lam2n2 0 ) ( >= lam2n3 0 ) ( > ( + ( * 1 lam2n0 ) ( * 1 lam2n1 ) ( * ( - 1 ) lam2n2 ) ( * Nl3CT1 lam2n3 ) ( - 1 ) ) 0 ) ( = ( + ( * ( - 1 ) lam2n0 ) ( * Nl3Pdolen^01 lam2n3 ) ) 0 ) ( = ( + ( * 1 lam2n0 ) ( * Nl3i^01 lam2n3 ) ) 0 ) ( = ( * Nl3num^01 lam2n3 ) 0 ) ( = ( * 1 lam2n2 ) 0 ) ( = ( * ( - 1 ) lam2n1 ) 0 ) ) ( and ( >= lam3n0 0 ) ( >= lam3n1 0 ) ( >= lam3n2 0 ) ( >= lam3n3 0 ) ( > ( + ( * 1 lam3n0 ) ( * 1 lam3n1 ) ( * ( - 1 ) lam3n2 ) ( * Nl3CT1 lam3n3 ) ( - 1 ( + Nl3CT1 ( * Nl3i^01 1 ) ) ) ) 0 ) ( = ( + ( * ( - 1 ) lam3n0 ) ( * Nl3Pdolen^01 lam3n3 ) ( - ( + 0 Nl3Pdolen^01 ) ) ) 0 ) ( = ( + ( * 1 lam3n0 ) ( * Nl3i^01 lam3n3 ) ( - ( + 0 ( * Nl3i^01 1 ) ) ) ) 0 ) ( = ( + ( * Nl3num^01 lam3n3 ) ( - ( + 0 Nl3num^01 ) ) ) 0 ) ( = ( * 1 lam3n2 ) 0 ) ( = ( * ( - 1 ) lam3n1 ) 0 ) ) ))
(assert ( or ( and ( >= lam4n0 0 ) ( >= lam4n1 0 ) ( >= lam4n2 0 ) ( >= lam4n3 0 ) ( >= lam4n4 0 ) ( > ( + ( * 1 lam4n0 ) ( * 1 lam4n1 ) ( * 2 lam4n2 ) ( * 2 lam4n3 ) ( * Nl3CT1 lam4n4 ) ( - 1 ) ) 0 ) ( = ( + ( * ( - 1 ) lam4n0 ) ( * Nl3Pdolen^01 lam4n4 ) ) 0 ) ( = ( + ( * 1 lam4n0 ) ( * Nl3i^01 lam4n4 ) ) 0 ) ( = ( * Nl3num^01 lam4n4 ) 0 ) ( = ( * ( - 1 ) lam4n2 ) 0 ) ( = ( * ( - 1 ) lam4n3 ) 0 ) ( = ( * ( - 1 ) lam4n1 ) 0 ) ) ( and ( >= lam5n0 0 ) ( >= lam5n1 0 ) ( >= lam5n2 0 ) ( >= lam5n3 0 ) ( >= lam5n4 0 ) ( > ( + ( * 1 lam5n0 ) ( * 1 lam5n1 ) ( * 2 lam5n2 ) ( * 2 lam5n3 ) ( * Nl3CT1 lam5n4 ) ( - 1 ( + Nl3CT1 ( * Nl3num^01 1 ) ) ) ) 0 ) ( = ( + ( * ( - 1 ) lam5n0 ) ( * Nl3Pdolen^01 lam5n4 ) ( - ( + 0 Nl3Pdolen^01 ) ) ) 0 ) ( = ( + ( * 1 lam5n0 ) ( * Nl3i^01 lam5n4 ) ( - ( + 0 Nl3i^01 ) ) ) 0 ) ( = ( + ( * Nl3num^01 lam5n4 ) ( - ( + 0 ( * Nl3num^01 1 ) ) ) ) 0 ) ( = ( * ( - 1 ) lam5n2 ) 0 ) ( = ( * ( - 1 ) lam5n3 ) 0 ) ( = ( * ( - 1 ) lam5n1 ) 0 ) ) ))
(assert ( and ( not ( <= ( + Pdolen^0 ( * ( - 1 ) i^0 ) ) 0 ) ) ( = ( + Pdolen^0 ( * ( - 1 ) undef126 ) ) 0 ) ( = ( + i^0 ( * ( - 1 ) undef128 ) ) 0 ) ( <= ( + Nl3CT1 ( * ( + 0 Nl3Pdolen^01 ) Pdolen^0 ) ( * ( + 0 Nl3i^01 ) i^0 ) ( * ( + 0 Nl3num^01 ) num^0 ) ) 0 ) ( <= ( + ( - 1 ) ( * ( - 1 ) Pdolen^0 ) i^0 ) 0 ) ))
(assert ( or ( and ( and ( and ( >= lam10n0 0 ) ( >= lam10n1 0 ) ( >= lam10n2 0 ) ( >= lam10n3 0 ) ( > ( + ( * 1 lam10n0 ) ( * 1 lam10n1 ) ( * ( - 1 ) lam10n2 ) ( * Nl3CT1 lam10n3 ) ( - 1 ( - ( + RFN1_CT ( * RFN1_i^0 ( - 1 ) ) ) RFN1_CT ) ) ) 0 ) ( = ( + ( * ( - 1 ) lam10n0 ) ( * Nl3Pdolen^01 lam10n3 ) ( - ( - ( + 0 RFN1_Pdolen^0 ) RFN1_Pdolen^0 ) ) ) 0 ) ( = ( + ( * 1 lam10n0 ) ( * Nl3i^01 lam10n3 ) ( - ( - ( + 0 ( * RFN1_i^0 1 ) ) RFN1_i^0 ) ) ) 0 ) ( = ( + ( * Nl3num^01 lam10n3 ) ( - ( - ( + 0 RFN1_num^0 ) RFN1_num^0 ) ) ) 0 ) ( = ( * 1 lam10n2 ) 0 ) ( = ( * ( - 1 ) lam10n1 ) 0 ) ) ( and ( >= lam14n0 0 ) ( >= lam14n1 0 ) ( >= lam14n2 0 ) ( >= lam14n3 0 ) ( > ( + ( * 1 lam14n0 ) ( * 1 lam14n1 ) ( * ( - 1 ) lam14n2 ) ( * Nl3CT1 lam14n3 ) ( - 1 ( - ( + RFN1_CT ( * RFN1_i^0 1 ) ) RFN1_CT ) ) ) 0 ) ( = ( + ( * ( - 1 ) lam14n0 ) ( * Nl3Pdolen^01 lam14n3 ) ( - ( - ( + 0 RFN1_Pdolen^0 ) RFN1_Pdolen^0 ) ) ) 0 ) ( = ( + ( * 1 lam14n0 ) ( * Nl3i^01 lam14n3 ) ( - ( - ( + 0 ( * RFN1_i^0 1 ) ) RFN1_i^0 ) ) ) 0 ) ( = ( + ( * Nl3num^01 lam14n3 ) ( - ( - ( + 0 RFN1_num^0 ) RFN1_num^0 ) ) ) 0 ) ( = ( * 1 lam14n2 ) 0 ) ( = ( * ( - 1 ) lam14n1 ) 0 ) ) ( and ( >= lam18n0 0 ) ( >= lam18n1 0 ) ( >= lam18n2 0 ) ( >= lam18n3 0 ) ( >= lam18n4 0 ) ( >= lam18n5 0 ) ( >= lam18n6 0 ) ( >= lam18n7 0 ) ( > ( + ( * 1 lam18n0 ) ( * 1 lam18n1 ) ( * 2 lam18n2 ) ( * 2 lam18n3 ) ( * 50001 lam18n4 ) ( * 50001 lam18n5 ) ( * 50001 lam18n6 ) ( * Nl3CT1 lam18n7 ) ( - 1 ( - ( + RFN1_CT ( * RFN1_num^0 1 ) ) RFN1_CT ) ) ) 0 ) ( = ( + ( * ( - 1 ) lam18n0 ) ( * 1 lam18n4 ) ( * ( - 1 ) lam18n5 ) ( * Nl3Pdolen^01 lam18n7 ) ( - ( - ( + 0 RFN1_Pdolen^0 ) RFN1_Pdolen^0 ) ) ) 0 ) ( = ( + ( * 1 lam18n0 ) ( * Nl3i^01 lam18n7 ) ( - ( - ( + 0 RFN1_i^0 ) RFN1_i^0 ) ) ) 0 ) ( = ( + ( * ( - 1 ) lam18n4 ) ( * ( - 1 ) lam18n5 ) ( * ( - 1 ) lam18n6 ) ( * Nl3num^01 lam18n7 ) ( - ( - ( + 0 ( * RFN1_num^0 1 ) ) RFN1_num^0 ) ) ) 0 ) ( = ( * ( - 1 ) lam18n2 ) 0 ) ( = ( * ( - 1 ) lam18n3 ) 0 ) ( = ( * ( - 1 ) lam18n1 ) 0 ) ) ) ( or ( and ( and ( >= lam8n0 0 ) ( >= lam8n1 0 ) ( >= lam8n2 0 ) ( >= lam8n3 0 ) ( > ( + ( * 1 lam8n0 ) ( * 1 lam8n1 ) ( * ( - 1 ) lam8n2 ) ( * Nl3CT1 lam8n3 ) ( - 1 ( - RFN1_CT ) ) ) 0 ) ( = ( + ( * ( - 1 ) lam8n0 ) ( * Nl3Pdolen^01 lam8n3 ) ( - ( - RFN1_Pdolen^0 ) ) ) 0 ) ( = ( + ( * 1 lam8n0 ) ( * Nl3i^01 lam8n3 ) ( - ( - RFN1_i^0 ) ) ) 0 ) ( = ( + ( * Nl3num^01 lam8n3 ) ( - ( - RFN1_num^0 ) ) ) 0 ) ( = ( * 1 lam8n2 ) 0 ) ( = ( * ( - 1 ) lam8n1 ) 0 ) ) ( and ( >= lam9n0 0 ) ( >= lam9n1 0 ) ( >= lam9n2 0 ) ( >= lam9n3 0 ) ( > ( + ( * 1 lam9n0 ) ( * 1 lam9n1 ) ( * ( - 1 ) lam9n2 ) ( * Nl3CT1 lam9n3 ) ( - 1 ( + ( - ( + RFN1_CT ( * RFN1_i^0 ( - 1 ) ) ) RFN1_CT ) 1 ) ) ) 0 ) ( = ( + ( * ( - 1 ) lam9n0 ) ( * Nl3Pdolen^01 lam9n3 ) ( - ( - ( + 0 RFN1_Pdolen^0 ) RFN1_Pdolen^0 ) ) ) 0 ) ( = ( + ( * 1 lam9n0 ) ( * Nl3i^01 lam9n3 ) ( - ( - ( + 0 ( * RFN1_i^0 1 ) ) RFN1_i^0 ) ) ) 0 ) ( = ( + ( * Nl3num^01 lam9n3 ) ( - ( - ( + 0 RFN1_num^0 ) RFN1_num^0 ) ) ) 0 ) ( = ( * 1 lam9n2 ) 0 ) ( = ( * ( - 1 ) lam9n1 ) 0 ) ) ) ( and ( and ( >= lam12n0 0 ) ( >= lam12n1 0 ) ( >= lam12n2 0 ) ( >= lam12n3 0 ) ( > ( + ( * 1 lam12n0 ) ( * 1 lam12n1 ) ( * ( - 1 ) lam12n2 ) ( * Nl3CT1 lam12n3 ) ( - 1 ( - RFN1_CT ) ) ) 0 ) ( = ( + ( * ( - 1 ) lam12n0 ) ( * Nl3Pdolen^01 lam12n3 ) ( - ( - RFN1_Pdolen^0 ) ) ) 0 ) ( = ( + ( * 1 lam12n0 ) ( * Nl3i^01 lam12n3 ) ( - ( - RFN1_i^0 ) ) ) 0 ) ( = ( + ( * Nl3num^01 lam12n3 ) ( - ( - RFN1_num^0 ) ) ) 0 ) ( = ( * 1 lam12n2 ) 0 ) ( = ( * ( - 1 ) lam12n1 ) 0 ) ) ( and ( >= lam13n0 0 ) ( >= lam13n1 0 ) ( >= lam13n2 0 ) ( >= lam13n3 0 ) ( > ( + ( * 1 lam13n0 ) ( * 1 lam13n1 ) ( * ( - 1 ) lam13n2 ) ( * Nl3CT1 lam13n3 ) ( - 1 ( + ( - ( + RFN1_CT ( * RFN1_i^0 1 ) ) RFN1_CT ) 1 ) ) ) 0 ) ( = ( + ( * ( - 1 ) lam13n0 ) ( * Nl3Pdolen^01 lam13n3 ) ( - ( - ( + 0 RFN1_Pdolen^0 ) RFN1_Pdolen^0 ) ) ) 0 ) ( = ( + ( * 1 lam13n0 ) ( * Nl3i^01 lam13n3 ) ( - ( - ( + 0 ( * RFN1_i^0 1 ) ) RFN1_i^0 ) ) ) 0 ) ( = ( + ( * Nl3num^01 lam13n3 ) ( - ( - ( + 0 RFN1_num^0 ) RFN1_num^0 ) ) ) 0 ) ( = ( * 1 lam13n2 ) 0 ) ( = ( * ( - 1 ) lam13n1 ) 0 ) ) ) ( and ( and ( >= lam16n0 0 ) ( >= lam16n1 0 ) ( >= lam16n2 0 ) ( >= lam16n3 0 ) ( >= lam16n4 0 ) ( >= lam16n5 0 ) ( >= lam16n6 0 ) ( >= lam16n7 0 ) ( > ( + ( * 1 lam16n0 ) ( * 1 lam16n1 ) ( * 2 lam16n2 ) ( * 2 lam16n3 ) ( * 50001 lam16n4 ) ( * 50001 lam16n5 ) ( * 50001 lam16n6 ) ( * Nl3CT1 lam16n7 ) ( - 1 ( - RFN1_CT ) ) ) 0 ) ( = ( + ( * ( - 1 ) lam16n0 ) ( * 1 lam16n4 ) ( * ( - 1 ) lam16n5 ) ( * Nl3Pdolen^01 lam16n7 ) ( - ( - RFN1_Pdolen^0 ) ) ) 0 ) ( = ( + ( * 1 lam16n0 ) ( * Nl3i^01 lam16n7 ) ( - ( - RFN1_i^0 ) ) ) 0 ) ( = ( + ( * ( - 1 ) lam16n4 ) ( * ( - 1 ) lam16n5 ) ( * ( - 1 ) lam16n6 ) ( * Nl3num^01 lam16n7 ) ( - ( - RFN1_num^0 ) ) ) 0 ) ( = ( * ( - 1 ) lam16n2 ) 0 ) ( = ( * ( - 1 ) lam16n3 ) 0 ) ( = ( * ( - 1 ) lam16n1 ) 0 ) ) ( and ( >= lam17n0 0 ) ( >= lam17n1 0 ) ( >= lam17n2 0 ) ( >= lam17n3 0 ) ( >= lam17n4 0 ) ( >= lam17n5 0 ) ( >= lam17n6 0 ) ( >= lam17n7 0 ) ( > ( + ( * 1 lam17n0 ) ( * 1 lam17n1 ) ( * 2 lam17n2 ) ( * 2 lam17n3 ) ( * 50001 lam17n4 ) ( * 50001 lam17n5 ) ( * 50001 lam17n6 ) ( * Nl3CT1 lam17n7 ) ( - 1 ( + ( - ( + RFN1_CT ( * RFN1_num^0 1 ) ) RFN1_CT ) 1 ) ) ) 0 ) ( = ( + ( * ( - 1 ) lam17n0 ) ( * 1 lam17n4 ) ( * ( - 1 ) lam17n5 ) ( * Nl3Pdolen^01 lam17n7 ) ( - ( - ( + 0 RFN1_Pdolen^0 ) RFN1_Pdolen^0 ) ) ) 0 ) ( = ( + ( * 1 lam17n0 ) ( * Nl3i^01 lam17n7 ) ( - ( - ( + 0 RFN1_i^0 ) RFN1_i^0 ) ) ) 0 ) ( = ( + ( * ( - 1 ) lam17n4 ) ( * ( - 1 ) lam17n5 ) ( * ( - 1 ) lam17n6 ) ( * Nl3num^01 lam17n7 ) ( - ( - ( + 0 ( * RFN1_num^0 1 ) ) RFN1_num^0 ) ) ) 0 ) ( = ( * ( - 1 ) lam17n2 ) 0 ) ( = ( * ( - 1 ) lam17n3 ) 0 ) ( = ( * ( - 1 ) lam17n1 ) 0 ) ) ) ) ) ( or ( and ( >= lam7n0 0 ) ( >= lam7n1 0 ) ( >= lam7n2 0 ) ( >= lam7n3 0 ) ( > ( + ( * 1 lam7n0 ) ( * 1 lam7n1 ) ( * ( - 1 ) lam7n2 ) ( * Nl3CT1 lam7n3 ) ( - 1 ) ) 0 ) ( = ( + ( * ( - 1 ) lam7n0 ) ( * Nl3Pdolen^01 lam7n3 ) ) 0 ) ( = ( + ( * 1 lam7n0 ) ( * Nl3i^01 lam7n3 ) ) 0 ) ( = ( * Nl3num^01 lam7n3 ) 0 ) ( = ( * 1 lam7n2 ) 0 ) ( = ( * ( - 1 ) lam7n1 ) 0 ) ) ( and ( >= lam11n0 0 ) ( >= lam11n1 0 ) ( >= lam11n2 0 ) ( >= lam11n3 0 ) ( > ( + ( * 1 lam11n0 ) ( * 1 lam11n1 ) ( * ( - 1 ) lam11n2 ) ( * Nl3CT1 lam11n3 ) ( - 1 ) ) 0 ) ( = ( + ( * ( - 1 ) lam11n0 ) ( * Nl3Pdolen^01 lam11n3 ) ) 0 ) ( = ( + ( * 1 lam11n0 ) ( * Nl3i^01 lam11n3 ) ) 0 ) ( = ( * Nl3num^01 lam11n3 ) 0 ) ( = ( * 1 lam11n2 ) 0 ) ( = ( * ( - 1 ) lam11n1 ) 0 ) ) ( and ( >= lam15n0 0 ) ( >= lam15n1 0 ) ( >= lam15n2 0 ) ( >= lam15n3 0 ) ( >= lam15n4 0 ) ( >= lam15n5 0 ) ( >= lam15n6 0 ) ( >= lam15n7 0 ) ( > ( + ( * 1 lam15n0 ) ( * 1 lam15n1 ) ( * 2 lam15n2 ) ( * 2 lam15n3 ) ( * 50001 lam15n4 ) ( * 50001 lam15n5 ) ( * 50001 lam15n6 ) ( * Nl3CT1 lam15n7 ) ( - 1 ) ) 0 ) ( = ( + ( * ( - 1 ) lam15n0 ) ( * 1 lam15n4 ) ( * ( - 1 ) lam15n5 ) ( * Nl3Pdolen^01 lam15n7 ) ) 0 ) ( = ( + ( * 1 lam15n0 ) ( * Nl3i^01 lam15n7 ) ) 0 ) ( = ( + ( * ( - 1 ) lam15n4 ) ( * ( - 1 ) lam15n5 ) ( * ( - 1 ) lam15n6 ) ( * Nl3num^01 lam15n7 ) ) 0 ) ( = ( * ( - 1 ) lam15n2 ) 0 ) ( = ( * ( - 1 ) lam15n3 ) 0 ) ( = ( * ( - 1 ) lam15n1 ) 0 ) ) ) ))
(check-sat)
(exit)
